c WARNING: for repeatability, setting FPU to use double precision
c ============================[ Problem Statistics ]=============================
c |                                                                             |
c |  Number of variables:           250                                         |
c |  Number of clauses:            1065                                         |
c |  Parse time:                   0.00 s                                       |
c |  Eliminated clauses:           0.00 Mb                                      |
c |  Simplification time:          0.00 s                                       |
c |                                                                             |
c ============================[ Search Statistics ]==============================
c | Conflicts |          ORIGINAL         |          LEARNT          | Progress |
c |           |    Vars  Clauses Literals |    Limit  Clauses Lit/Cl |          |
c ===============================================================================
c |      5000 |     245     1048     3158 |      869     4279     13 |  0.002 % | 13 384 | 0 0.8 (0.8) 1.4 (1.4) 5 (5-10) 15000 0.02
c |     10000 |     245     1048     3158 |     1634     8683     14 |  0.002 % | 15 666 | 0 0.8 (0.8) 1.4 (1.4) 5 (5-10) 15000 0.02
c |     15000 |     245     1048     3158 |     2318    13189     14 |  0.002 % | 16 937 | 0 0.8 (0.8) 1.4 (1.4) 5 (5-10) 15000 0.02
c |     20000 |     245     1048     3158 |     3106    17006     14 |  0.002 % | 21 952 | 0 0.8 (0.8) 1.4 (1.4) 5 (5-10) 15000 0.02
c |     25000 |     245     1048     3158 |     3904    21459     13 |  0.002 % | 21 1190 | 0 0.8 (0.8) 1.4 (1.4) 5 (5-10) 15000 0.02
c |     30000 |     245     1048     3158 |     4672    25921     13 |  0.002 % | 22 1363 | 0 0.8 (0.8) 1.4 (1.4) 5 (5-10) 15000 0.02
c |     35000 |     245     1048     3158 |     5342    15999     12 |  0.002 % | 28 1250 | 0 0.8 (0.8) 1.4 (1.4) 5 (5-10) 15000 0.02
c |     40000 |     245     1048     3158 |     6046    20501     12 |  0.002 % | 30 1333 | 0 0.8 (0.8) 1.4 (1.4) 5 (5-10) 15000 0.02
c |     45000 |     245     1048     3158 |     6733    24989     13 |  0.002 % | 38 1184 | 0 0.8 (0.8) 1.4 (1.4) 5 (5-10) 15000 0.02
c |     50000 |     245     1048     3158 |     7354    15912     12 |  0.002 % | 44 1136 | 0 0.8 (0.8) 1.4 (1.4) 5 (5-10) 15000 0.02
c |     55000 |     245     1048     3158 |     8131    20399     12 |  0.002 % | 44 1250 | 0 0.8 (0.8) 1.4 (1.4) 5 (5-10) 15000 0.02
c |     60000 |     245     1048     3158 |     8766    24946     12 |  0.002 % | 51 1176 | 0 0.8 (0.8) 1.4 (1.4) 5 (5-10) 15000 0.02
c |     65000 |     245     1048     3158 |     9392    15978     12 |  0.002 % | 51 1274 | 0 0.8 (0.8) 1.4 (1.4) 5 (5-10) 15000 0.02
c |     70000 |     245     1048     3158 |    10057    20491     12 |  0.002 % | 53 1320 | 0 0.8 (0.8) 1.4 (1.4) 5 (5-10) 15000 0.02
c |     75000 |     245     1048     3158 |    10736    25049     12 |  0.002 % | 53 1415 | 0 0.8 (0.8) 1.4 (1.4) 5 (5-10) 15000 0.02
c |     80000 |     245     1048     3158 |    11817    15685     11 |  0.005 % | 53 1509 | 0 0.8 (0.8) 1.4 (1.4) 5 (5-10) 15000 0.02
c |     85000 |     244     1036     3122 |    10705     8495     11 |  0.402 % | 53 1603 | 0 0.8 (0.8) 1.4 (1.4) 5 (5-10) 15000 0.02
c |     90000 |     244     1036     3122 |    11553    12921     11 |  0.402 % | 53 1698 | 0 0.8 (0.8) 1.4 (1.4) 5 (5-10) 15000 0.02
c ===============================================================================
c restarts              : 53
c conflicts             : 92920          (39527 /sec)
c decisions             : 108327         (0.00 % random) (46081 /sec)
c propagations          : 3875979        (1648799 /sec)
c conflict literals     : 1210370        (26.09 % deleted)
c Memory used           : 12.00 MB
c CPU time              : 2.35079 s
c 
s UNKNOWN
